
Log started (V11.0.0) Fri May 16 18:59:14 2008

Tried aggregator 1 time.
Reduced MIP has 240 rows, 8001 columns, and 16040 nonzeros.
Presolve time =    0.06 sec.
Clique table members: 200.
MIP emphasis: balance optimality and feasibility.
MIP search method: dynamic search.
Parallel mode: none, using 1 thread.
Root relaxation solution time =    0.55 sec.

        Nodes                                         Cuts/
   Node  Left     Objective  IInf  Best Integer     Best Node    ItCnt     Gap

*     0+    0                        21968.0000      500.8242      565   97.72%
*     0+    0                          504.0000      500.8242      565    0.63%
      0     0      501.0000    53      504.0000      Fract: 5      568    0.60%
      0     0      501.0000    56      504.0000     Covers: 1      572    0.60%
      0     0      501.0000    65      504.0000     Covers: 1      576    0.60%
      0     2      501.0000    65      504.0000      501.0000      576    0.60%
    100    31        cutoff            504.0000      501.0000     4852    0.60%
    200    35        cutoff            504.0000      501.0000    10862    0.60%
    300    57        cutoff            504.0000      501.0000    17038    0.60%
    400   113    infeasible            504.0000      501.0000    21293    0.60%
*   478+   76                          503.0000      501.0000    41815    0.40%

Cover cuts applied:  2
Mixed integer rounding cuts applied:  1
Gomory fractional cuts applied:  2

Solution pool: 3 solutions saved.

MIP - Integer optimal solution:  Objective = 5.0300000000e+002
Solution time =   18.31 sec.  Iterations = 42130  Nodes = 478 (76)


Incumbent solution
Variable Name           Solution Value
Cmax                        503.000000
X_1_12                        1.000000
X_2_19                        1.000000
X_3_2                         1.000000
X_4_23                        1.000000
X_5_35                        1.000000
X_6_3                         1.000000
X_7_6                         1.000000
X_8_19                        1.000000
X_9_31                        1.000000
X_10_13                       1.000000
X_11_23                       1.000000
X_12_13                       1.000000
X_13_11                       1.000000
X_14_5                        1.000000
X_15_8                        1.000000
X_16_34                       1.000000
X_17_22                       1.000000
X_18_9                        1.000000
X_19_2                        1.000000
X_20_38                       1.000000
X_21_25                       1.000000
X_22_22                       1.000000
X_23_24                       1.000000
X_24_30                       1.000000
X_25_12                       1.000000
X_26_16                       1.000000
X_27_17                       1.000000
X_28_40                       1.000000
X_29_29                       1.000000
X_30_38                       1.000000
X_31_20                       1.000000
X_32_10                       1.000000
X_33_12                       1.000000
X_34_9                        1.000000
X_35_11                       1.000000
X_36_17                       1.000000
X_37_28                       1.000000
X_38_18                       1.000000
X_39_37                       1.000000
X_40_21                       1.000000
X_41_30                       1.000000
X_42_27                       1.000000
X_43_24                       1.000000
X_44_26                       1.000000
X_45_32                       1.000000
X_46_13                       1.000000
X_47_38                       1.000000
X_48_8                        1.000000
X_49_14                       1.000000
X_50_36                       1.000000
X_51_20                       1.000000
X_52_40                       1.000000
X_53_4                        1.000000
X_54_39                       1.000000
X_55_23                       1.000000
X_56_1                        1.000000
X_57_9                        1.000000
X_58_6                        1.000000
X_59_19                       1.000000
X_60_2                        1.000000
X_61_22                       1.000000
X_62_14                       1.000000
X_63_33                       1.000000
X_64_34                       1.000000
X_65_40                       1.000000
X_66_22                       1.000000
X_67_34                       1.000000
X_68_33                       1.000000
X_69_27                       1.000000
X_70_21                       1.000000
X_71_18                       1.000000
X_72_1                        1.000000
X_73_6                        1.000000
X_74_37                       1.000000
X_75_33                       1.000000
X_76_5                        1.000000
X_77_3                        1.000000
X_78_23                       1.000000
X_79_33                       1.000000
X_80_2                        1.000000
X_81_23                       1.000000
X_82_5                        1.000000
X_83_17                       1.000000
X_84_15                       1.000000
X_85_39                       1.000000
X_86_25                       1.000000
X_87_6                        1.000000
X_88_25                       1.000000
X_89_37                       1.000000
X_90_27                       1.000000
X_91_20                       1.000000
X_92_15                       1.000000
X_93_4                        1.000000
X_94_1                        1.000000
X_95_29                       1.000000
X_96_14                       1.000000
X_97_22                       1.000000
X_98_8                        1.000000
X_99_38                       1.000000
X_100_32                      1.000000
X_101_6                       1.000000
X_102_16                      1.000000
X_103_27                      1.000000
X_104_21                      1.000000
X_105_31                      1.000000
X_106_7                       1.000000
X_107_16                      1.000000
X_108_28                      1.000000
X_109_38                      1.000000
X_110_31                      1.000000
X_111_39                      1.000000
X_112_30                      1.000000
X_113_2                       1.000000
X_114_40                      1.000000
X_115_21                      1.000000
X_116_7                       1.000000
X_117_37                      1.000000
X_118_13                      1.000000
X_119_11                      1.000000
X_120_29                      1.000000
X_121_5                       1.000000
X_122_12                      1.000000
X_123_28                      1.000000
X_124_33                      1.000000
X_125_15                      1.000000
X_126_27                      1.000000
X_127_39                      1.000000
X_128_16                      1.000000
X_129_30                      1.000000
X_130_35                      1.000000
X_131_7                       1.000000
X_132_9                       1.000000
X_133_14                      1.000000
X_134_26                      1.000000
X_135_24                      1.000000
X_136_34                      1.000000
X_137_36                      1.000000
X_138_17                      1.000000
X_139_11                      1.000000
X_140_9                       1.000000
X_141_12                      1.000000
X_142_11                      1.000000
X_143_35                      1.000000
X_144_35                      1.000000
X_145_29                      1.000000
X_146_19                      1.000000
X_147_3                       1.000000
X_148_4                       1.000000
X_149_31                      1.000000
X_150_28                      1.000000
X_151_17                      1.000000
X_152_10                      1.000000
X_153_29                      1.000000
X_154_14                      1.000000
X_155_7                       1.000000
X_156_18                      1.000000
X_157_5                       1.000000
X_158_34                      1.000000
X_159_40                      1.000000
X_160_36                      1.000000
X_161_21                      1.000000
X_162_15                      1.000000
X_163_13                      1.000000
X_164_18                      1.000000
X_165_19                      1.000000
X_166_26                      1.000000
X_167_1                       1.000000
X_168_24                      1.000000
X_169_4                       1.000000
X_170_20                      1.000000
X_171_31                      1.000000
X_172_8                       1.000000
X_173_37                      1.000000
X_174_25                      1.000000
X_175_26                      1.000000
X_176_32                      1.000000
X_177_7                       1.000000
X_178_32                      1.000000
X_179_18                      1.000000
X_180_25                      1.000000
X_181_30                      1.000000
X_182_26                      1.000000
X_183_1                       1.000000
X_184_4                       1.000000
X_185_3                       1.000000
X_186_36                      1.000000
X_187_36                      1.000000
X_188_10                      1.000000
X_189_15                      1.000000
X_190_10                      1.000000
X_191_28                      1.000000
X_192_10                      1.000000
X_193_16                      1.000000
X_194_3                       1.000000
X_195_8                       1.000000
X_196_20                      1.000000
X_197_39                      1.000000
X_198_24                      1.000000
X_199_35                      1.000000
X_200_32                      1.000000
All other variables in the range 1-8001 are 0.
